NAME: instance_2256
TYPE: TSP
DIMENSION: 20
EDGE_WEIGHT_TYPE: EUC_2D
NODE_COORD_SECTION
0 66.30 56.56
1 46.68 11.04
2 24.25 88.28
3 74.85 45.83
4 6.25 82.26
5 1.24 25.37
6 55.95 21.30
7 26.29 50.06
8 26.84 78.96
9 14.32 58.91
10 52.07 74.30
11 84.50 98.82
12 19.29 63.72
13 74.90 58.38
14 97.03 75.98
15 91.98 11.91
16 73.55 99.73
17 45.88 88.38
18 21.66 1.96
19 57.05 32.96
EOF
